This is Ipopt version 3.10.0, running with linear solver ma27.

Number of nonzeros in equality constraint Jacobian...:        0
Number of nonzeros in inequality constraint Jacobian.:       48
Number of nonzeros in Lagrangian Hessian.............:        0

Total number of variables............................:        6
                     variables with only lower bounds:        0
                variables with lower and upper bounds:        6
                     variables with only upper bounds:        0
Total number of equality constraints.................:        0
Total number of inequality constraints...............:        8
        inequality constraints with only lower bounds:        0
   inequality constraints with lower and upper bounds:        0
        inequality constraints with only upper bounds:        8

iter    objective    inf_pr   inf_du lg(mu)  ||d||  lg(rg) alpha_du alpha_pr  ls
   0  7.6646437e+00 2.46e+00 1.15e+00   0.0 0.00e+00    -  0.00e+00 0.00e+00   0
   1  9.2664141e+00 1.59e+00 1.01e+01  -0.5 1.48e+00    -  5.32e-01 4.92e-01f  1
   2  9.8773617e+00 7.40e-01 5.98e+00  -0.5 9.37e-01    -  9.82e-01 5.80e-01h  1
   3  1.4955717e+01 3.58e-01 3.56e+01  -0.2 1.70e+00    -  7.66e-01 8.37e-01h  1
   4  1.4467106e+01 2.23e-01 6.30e+00  -0.0 9.90e-01    -  5.92e-01 6.71e-01f  1
   5  1.5232896e+01 1.14e-01 5.82e+00  -0.8 3.92e-01    -  9.92e-01 5.83e-01h  1
   6  1.5537279e+01 8.62e-02 1.25e+01  -2.1 2.34e-01    -  1.00e+00 2.39e-01h  1
   7  1.6259183e+01 4.34e-02 1.82e+01  -2.3 3.59e-01    -  1.00e+00 4.81e-01h  1
   8  1.7283308e+01 0.00e+00 3.84e+00  -3.1 3.57e-01    -  1.00e+00 1.00e+00h  1
   9  1.6971073e+01 1.54e-03 2.75e+00  -2.0 2.43e-01    -  1.00e+00 1.00e+00f  1
iter    objective    inf_pr   inf_du lg(mu)  ||d||  lg(rg) alpha_du alpha_pr  ls
  10  1.6897231e+01 2.48e-03 3.26e-01  -3.1 1.39e-01    -  1.00e+00 8.80e-01h  1
  11  1.6954124e+01 9.94e-04 1.07e-01  -4.6 3.80e-02    -  1.00e+00 9.41e-01h  1
  12  1.6980355e+01 0.00e+00 6.65e-02  -6.0 1.30e-02    -  1.00e+00 9.99e-01h  1
  13  1.6966766e+01 5.57e-04 2.54e-02  -7.2 4.58e-03    -  1.00e+00 1.00e+00h  1
  14  1.6975734e+01 0.00e+00 2.33e-02  -8.8 3.53e-03    -  1.00e+00 1.00e+00h  1
  15  1.6973358e+01 3.70e-04 4.46e-02 -10.7 1.75e-03    -  1.00e+00 1.00e+00h  1
  16  1.6972145e+01 1.14e-04 1.29e-02 -11.0 4.28e-04    -  1.00e+00 1.00e+00h  1

Number of Iterations....: 16

                                   (scaled)                 (unscaled)
Objective...............:   1.6972145480160588e+01    1.6972145480160588e+01
Dual infeasibility......:   1.2915031435097316e-02    1.2915031435097316e-02
Constraint violation....:   1.1434256252337323e-04    1.1434256252337323e-04
Complementarity.........:   1.0013363631197106e-11    1.0013363631197106e-11
Overall NLP error.......:   1.2915031435097316e-02    1.2915031435097316e-02


Number of objective function evaluations             = 17
Number of objective gradient evaluations             = 17
Number of equality constraint evaluations            = 0
Number of inequality constraint evaluations          = 17
Number of equality constraint Jacobian evaluations   = 0
Number of inequality constraint Jacobian evaluations = 17
Number of Lagrangian Hessian evaluations             = 0
Total CPU secs in IPOPT (w/o function evaluations)   =      0.016
Total CPU secs in NLP function evaluations           =    226.629

EXIT: Stopping optimization at current point as requested by user.
